(declare-const |b':64:75:79| Int)
(declare-const |i':62:73:77| Int)
(declare-const |havoc:0| Int)
(declare-const |a':63:74:78| Int)
(declare-const |K:71:72:76| Int)
(assert (and (<= (- |havoc:0|) 0) (<= (+ |havoc:0| -1000000) 0)
               (or (not (and (<= (- |K:71:72:76|) 0) (<= |K:71:72:76| 0)))
                     (= (+ |i':62:73:77| (- |K:71:72:76|)) 0))
               (or (not (<= (+ (- |K:71:72:76|) 1) 0))
                     (= (+ |i':62:73:77| (- |K:71:72:76|)) 0))
               (or (not (and (<= (- |K:71:72:76|) 0) (<= |K:71:72:76| 0)))
                     (= (+ |b':64:75:79| |a':63:74:78| (* -3 |K:71:72:76|)) 0))
               (or (not (<= (+ (- |K:71:72:76|) 1) 0))
                     (= (+ |b':64:75:79| |a':63:74:78| (* -3 |K:71:72:76|)) 0))
               (or (not (<= (- |K:71:72:76|) 0))
                     (<= (+ |b':64:75:79| (* -2 |K:71:72:76|)) 0))
               (or (not (<= (- |K:71:72:76|) 0))
                     (<= (+ (- |b':64:75:79|) |K:71:72:76|) 0))
               (or (and (= |K:71:72:76| 0) (= (- |b':64:75:79|) 0)
                          (= (- |a':63:74:78|) 0) (= (- |i':62:73:77|) 0))
                     (and (<= (+ (- |K:71:72:76|) 1) 0)
                            (<= (+ (- |havoc:0|) 1) 0)
                            (= (+ (- |b':64:75:79|) (- |a':63:74:78|)
                                    (* 3 |i':62:73:77|)) 0)
                            (<= (+ |b':64:75:79| |a':63:74:78|
                                     (* -3 |havoc:0|)) 0)
                            (<= (+ (- |a':63:74:78|) 1) 0)
                            (<= (+ (- |b':64:75:79|) 1) 0)
                            (<= (+ (- |b':64:75:79|) (- |a':63:74:78|) 3) 0)))
               (<= (- |K:71:72:76|) 0) (<= (- |b':64:75:79|) 0)
               (<= (- |a':63:74:78|) 0) (<= (- |i':62:73:77|) 0)
               (<= (- |havoc:0|) 0)
               (= (+ |b':64:75:79| |a':63:74:78| (* -3 |i':62:73:77|)) 0)
               (<= (+ (- |i':62:73:77|) |havoc:0|) 0)
               (not (= (+ |b':64:75:79| |a':63:74:78| (* -3 |havoc:0|)) 0))))
(check-sat)
